Problem:    
Rows:       256
Columns:    89 (72 integer, 72 binary)
Non-zeros:  924
Status:     INTEGER OPTIMAL
Objective:  value = 51.4503 (MINimum)

   No.   Row name        Activity     Lower bound   Upper bound
------ ------------    ------------- ------------- -------------
     1 r.5                   1075.45             0               
     2 r.6                  -994.441       -1014.4               
     3 r.7                   51.4503             0               
     4 r.8                   29.5589      -1012.02               
     5 r.9                   1075.45             0               
     6 r.10                  -1010.3      -1013.67               
     7 r.11                  51.4503             0               
     8 r.12                   3.3714         -1012               
     9 r.13                  51.4503             0               
    10 r.14                  41.6214      -1008.05               
    11 r.15                  1075.45             0               
    12 r.16                 -982.379       -1007.3               
    13 r.17                  51.4503             0               
    14 r.18                   3.3714       -1015.1               
    15 r.19                  1075.45             0               
    16 r.20                 -999.076      -1012.03               
    17 r.21                  51.4503             0               
    18 r.22                  29.5589      -1016.03               
    19 r.23                  1075.45             0               
    20 r.24                 -1011.05      -1014.42               
    21 r.25                  1075.45             0               
    22 r.26                  -972.55      -1002.11               
    23 r.27                  51.4503             0               
    24 r.28                  51.4503      -1014.18               
    25 r.29                  51.4503             0               
    26 r.30                  51.4503      -1001.68               
    27 r.31                  1075.45             0               
    28 r.32                  -972.55      -1014.17               
    29 r.33                  51.4503             0               
    30 r.34                   3.3714      -1022.68               
    31 r.35                  1075.45             0               
    32 r.36                 -1020.63      -1020.63               
    33 r.37                        1             1             = 
    34 r.38                        1             1             = 
    35 r.39                        1             1             = 
    36 r.40                        1             1             = 
    37 r.41                        1             1             = 
    38 r.42                        1             1             = 
    39 r.43                        1             1             = 
    40 r.44                        1             1             = 
    41 r.45                        2             2               
    42 r.46                       -2         -1025               
    43 r.47                   -15.86      -1013.67               
    44 r.48                     1024             2               
    45 r.49                    -1024         -1025               
    46 r.50                  2021.81         -1012               
    47 r.51                     1025             2               
    48 r.52                    -1025         -1025               
    49 r.53                  2060.06      -1008.05               
    50 r.54                     1025             2               
    51 r.55                    -1025         -1025               
    52 r.56                  2060.06       -1007.3               
    53 r.57                     1025             2               
    54 r.58                    -1025         -1025               
    55 r.59                  2021.81       -1015.1               
    56 r.60                     1025             2               
    57 r.61                    -1025         -1025               
    58 r.62                  2043.37      -1012.03               
    59 r.63                     1025             2               
    60 r.64                    -1025         -1025               
    61 r.65                     2048      -1016.03               
    62 r.66                     1025             2               
    63 r.67                    -1025         -1025               
    64 r.68                  2031.39      -1014.42               
    65 r.69                 -1002.11      -1002.11               
    66 r.70                  21.8914      -1014.18               
    67 r.71                 -1002.11      -1002.11               
    68 r.72                  21.8914      -1014.18               
    69 r.73                     1025             2               
    70 r.74                    -1025         -1025               
    71 r.75                  2069.89      -1001.68               
    72 r.76                     1025             2               
    73 r.77                    -1025         -1025               
    74 r.78                  2069.89      -1014.17               
    75 r.79                  16.5894             0               
    76 r.80                  26.1875             0               
    77 r.81                  16.5894             0               
    78 r.82                  26.1875             0               
    79 r.83                        2             2               
    80 r.84                       -2         -1025               
    81 r.85                  10.1218        9.5981               
    82 r.86                     1024             2               
    83 r.87                    -1024         -1025               
    84 r.88                  2079.95       11.9833               
    85 r.89                     1025             2               
    86 r.90                    -1025         -1025               
    87 r.91                  2070.18      -1008.05               
    88 r.92                     1025             2               
    89 r.93                    -1025         -1025               
    90 r.94                  2092.01       -1007.3               
    91 r.95                     1025             2               
    92 r.96                    -1025         -1025               
    93 r.97                  2031.93       -1015.1               
    94 r.98                     1025             2               
    95 r.99                    -1025         -1025               
    96 r.100                 2075.32      -1012.03               
    97 r.101                    1025             2               
    98 r.102                   -1025         -1025               
    99 r.103                 2058.12      -1016.03               
   100 r.104                    1025             2               
   101 r.105                   -1025         -1025               
   102 r.106                 2063.34      -1014.42               
   103 r.107                       2             2               
   104 r.108                      -2         -1025               
   105 r.109                -991.987      -1002.11               
   106 r.110                    1024             2               
   107 r.111                   -1024         -1025               
   108 r.112                 2101.84      -1014.18               
   109 r.113                 32.0132      -1001.68               
   110 r.114                -991.987      -1014.17               
   111 r.115                 53.8424      -1001.68               
   112 r.116                -970.158      -1014.17               
   113 r.117                       0             0               
   114 r.118                       0             0               
   115 r.119                       0             0               
   116 r.120                       0             0               
   117 r.121                    1025             2               
   118 r.122                   -1025         -1025               
   119 r.123                 2035.94        9.5981               
   120 r.124                    1025             2               
   121 r.125                   -1025         -1025               
   122 r.126                 2035.94       11.9833               
   123 r.127                    1025             2               
   124 r.128                   -1025         -1025               
   125 r.129                 2020.08       10.3275               
   126 r.130                    1025             2               
   127 r.131                   -1025         -1025               
   128 r.132                 2009.75       12.0003               
   129 r.133                   38.25             0               
   130 r.134                 21.5528             0               
   131 r.135                 16.6972             0               
   132 r.136                       0             0               
   133 r.137                    1024             2               
   134 r.138                   -1024         -1025               
   135 r.139                 2035.94      -1016.03               
   136 r.140                       2             2               
   137 r.141                      -2         -1025               
   138 r.142                -28.6709      -1014.42               
   139 r.143                    1025             2               
   140 r.144                   -1025         -1025               
   141 r.145                 2057.83      -1002.11               
   142 r.146                    1025             2               
   143 r.147                   -1025         -1025               
   144 r.148                 2057.83      -1014.18               
   145 r.149                  9.8289      -1001.68               
   146 r.150                -1014.17      -1014.17               
   147 r.151                  9.8289      -1001.68               
   148 r.152                -1014.17      -1014.17               
   149 r.153                   38.25             0               
   150 r.154                 21.5528             0               
   151 r.155                   38.25             0               
   152 r.156                 21.5528             0               
   153 r.157                    1025             2               
   154 r.158                   -1025         -1025               
   155 r.159                 2074.19        9.5981               
   156 r.160                    1025             2               
   157 r.161                   -1025         -1025               
   158 r.162                 2052.63       11.9833               
   159 r.163                    1025             2               
   160 r.164                   -1025         -1025               
   161 r.165                 2058.33       10.3275               
   162 r.166                    1025             2               
   163 r.167                   -1025         -1025               
   164 r.168                 2026.45       12.0003               
   165 r.169                    1024             2               
   166 r.170                   -1024         -1025               
   167 r.171                 2074.19      -1016.03               
   168 r.172                       2             2               
   169 r.173                      -2         -1025               
   170 r.174                -11.9737      -1014.42               
   171 r.175                    1025             2               
   172 r.176                   -1025         -1025               
   173 r.177                 2096.08      -1002.11               
   174 r.178                    1025             2               
   175 r.179                   -1025         -1025               
   176 r.180                 2074.53      -1014.18               
   177 r.181                 48.0789      -1001.68               
   178 r.182                -975.921      -1014.17               
   179 r.183                 26.5261      -1001.68               
   180 r.184                -997.474      -1014.17               
   181 r.185                       0             0               
   182 r.186                  9.5791             0               
   183 r.187                       0             0               
   184 r.188                  9.5791             0               
   185 r.189                    1025             2               
   186 r.190                   -1025         -1025               
   187 r.191                    2048        9.5981               
   188 r.192                    1025             2               
   189 r.193                   -1025         -1025               
   190 r.194                 2064.61       11.9833               
   191 r.195                    1025             2               
   192 r.196                   -1025         -1025               
   193 r.197                 2032.14       10.3275               
   194 r.198                    1025             2               
   195 r.199                   -1025         -1025               
   196 r.200                 2038.42       12.0003               
   197 r.201                    1024             2               
   198 r.202                   -1024         -1025               
   199 r.203                 2060.06       15.9516               
   200 r.204                       2             2               
   201 r.205                      -2         -1025               
   202 r.206                 28.6709       16.6972               
   203 r.207                    1024             2               
   204 r.208                   -1024         -1025               
   205 r.209                 2021.81        8.8967               
   206 r.210                       2             2               
   207 r.211                      -2         -1025               
   208 r.212                 11.9737       11.9737               
   209 r.213                -1002.11      -1002.11               
   210 r.214                 21.8914      -1014.18               
   211 r.215                  -985.5      -1002.11               
   212 r.216                 38.4998      -1014.18               
   213 r.217                 21.8914      -1001.68               
   214 r.218                -1002.11      -1014.17               
   215 r.219                 38.4998      -1001.68               
   216 r.220                  -985.5      -1014.17               
   217 r.221                 26.1875             0               
   218 r.222                       0             0               
   219 r.223                 26.1875             0               
   220 r.224                       0             0               
   221 r.225                       2             2               
   222 r.226                      -2         -1025               
   223 r.227                 986.249       10.3275               
   224 r.228                    1024             2               
   225 r.229                   -1024         -1025               
   226 r.230                 1999.92       12.0003               
   227 r.231                    1025             2               
   228 r.232                   -1025         -1025               
   229 r.233                 2038.17       15.9516               
   230 r.234                    1025             2               
   231 r.235                   -1025         -1025               
   232 r.236                 2038.17       16.6972               
   233 r.237                    1025             2               
   234 r.238                   -1025         -1025               
   235 r.239                 1999.92        8.8967               
   236 r.240                    1025             2               
   237 r.241                   -1025         -1025               
   238 r.242                 2021.47       11.9737               
   239 r.243                    1025             2               
   240 r.244                   -1025         -1025               
   241 r.245                    2048      -1001.68               
   242 r.246                    1025             2               
   243 r.247                   -1025         -1025               
   244 r.248                    2048      -1014.17               
   245 r.249                    1025             2               
   246 r.250                   -1025         -1025               
   247 r.251                 2026.11        9.5981               
   248 r.252                    1025             2               
   249 r.253                   -1025         -1025               
   250 r.254                 2026.11       11.9833               
   251 r.255                    1025             2               
   252 r.256                   -1025         -1025               
   253 r.257                    2048       21.8914               
   254 r.258                    1025             2               
   255 r.259                   -1025         -1025               
   256 r.260                    2048        9.8246               

   No. Column name       Activity     Lower bound   Upper bound
------ ------------    ------------- ------------- -------------
     1 tt                    51.4503             0               
     2 s_1_1        *              1             0             1 
     3 t_1_1                 21.8914             0               
     4 s_1_6        *              1             0             1 
     5 s_2_1        *              0             0             1 
     6 t_2_1                 21.8914             0               
     7 s_2_6        *              0             0             1 
     8 s_1_2        *              1             0             1 
     9 t_1_2                 32.0132             0               
    10 s_1_7        *              0             0             1 
    11 s_2_2        *              0             0             1 
    12 t_2_2                 53.8424             0               
    13 s_2_7        *              1             0             1 
    14 s_1_3        *              0             0             1 
    15 t_1_3                  9.8289             0               
    16 s_2_3        *              1             0             1 
    17 t_2_3                  9.8289             0               
    18 s_1_4        *              0             0             1 
    19 t_1_4                 48.0789             0               
    20 s_2_4        *              1             0             1 
    21 t_2_4                 26.5261             0               
    22 s_1_5        *              0             0             1 
    23 t_1_5                 21.8914             0               
    24 s_2_5        *              1             0             1 
    25 t_2_5                 38.4998             0               
    26 t_1_6                       0             0               
    27 t_2_6                       0             0               
    28 t_1_7                       0             0               
    29 t_2_7                       0             0               
    30 s_1_8        *              0             0             1 
    31 t_1_8                 48.0789             0               
    32 s_2_8        *              1             0             1 
    33 t_2_8                 48.0789             0               
    34 r_1_1_2      *              0             0             1 
    35 u_1_1_2      *              0             0             1 
    36 r_2_1_2      *              1             0             1 
    37 u_2_1_2      *              0             0             1 
    38 r_1_1_3      *              1             0             1 
    39 u_1_1_3      *              0             0             1 
    40 r_2_1_3      *              1             0             1 
    41 u_2_1_3      *              0             0             1 
    42 r_1_1_4      *              1             0             1 
    43 u_1_1_4      *              0             0             1 
    44 r_2_1_4      *              1             0             1 
    45 u_2_1_4      *              0             0             1 
    46 r_1_1_5      *              1             0             1 
    47 u_1_1_5      *              0             0             1 
    48 r_2_1_5      *              1             0             1 
    49 u_2_1_5      *              0             0             1 
    50 r_1_1_7      *              1             0             1 
    51 u_1_1_7      *              0             0             1 
    52 r_2_1_7      *              1             0             1 
    53 u_2_1_7      *              0             0             1 
    54 r_1_2_3      *              1             0             1 
    55 u_1_2_3      *              0             0             1 
    56 r_2_2_3      *              1             0             1 
    57 u_2_2_3      *              0             0             1 
    58 r_1_2_4      *              1             0             1 
    59 u_1_2_4      *              0             0             1 
    60 r_2_2_4      *              1             0             1 
    61 u_2_2_4      *              0             0             1 
    62 r_1_2_5      *              1             0             1 
    63 u_1_2_5      *              0             0             1 
    64 r_2_2_5      *              1             0             1 
    65 u_2_2_5      *              0             0             1 
    66 r_1_2_6      *              0             0             1 
    67 u_1_2_6      *              1             0             1 
    68 r_2_2_6      *              1             0             1 
    69 u_2_2_6      *              0             0             1 
    70 r_1_3_5      *              1             0             1 
    71 u_1_3_5      *              0             0             1 
    72 r_2_3_5      *              0             0             1 
    73 u_2_3_5      *              0             0             1 
    74 r_1_3_6      *              1             0             1 
    75 u_1_3_6      *              0             0             1 
    76 r_2_3_6      *              1             0             1 
    77 u_2_3_6      *              0             0             1 
    78 r_1_4_5      *              1             0             1 
    79 u_1_4_5      *              0             0             1 
    80 r_2_4_5      *              0             0             1 
    81 u_2_4_5      *              0             0             1 
    82 r_1_4_6      *              1             0             1 
    83 u_1_4_6      *              0             0             1 
    84 r_2_4_6      *              1             0             1 
    85 u_2_4_6      *              0             0             1 
    86 r_1_6_7      *              1             0             1 
    87 u_1_6_7      *              0             0             1 
    88 r_2_6_7      *              1             0             1 
    89 u_2_6_7      *              0             0             1 

Integer feasibility conditions:

KKT.PE: max.abs.err = 4.55e-13 on row 119
        max.rel.err = 1.10e-16 on row 119
        High quality

KKT.PB: max.abs.err = 1.78e-15 on row 208
        max.rel.err = 1.37e-16 on row 208
        High quality

End of output
